50	5020

275 239
386 992
129 952
835 145
900 223
664 369
230 254
850 943
456 642
893 519
35 26
227 517
641 415
162 570
431 657
321 702
682 870
113 668
390 243
565 665
904 746
696 735
671 871
819 969
974 100
231 873
586 931
227 823
270 318
506 140
612 113
842 531
95 509
254 634
496 243
62 476
915 505
221 61
371 555
171 226
922 71
839 155
373 578
216 320
855 633
662 881
485 670
602 982
745 187
338 404
